SAT/7922960_13.param
$ LBS instance with n = 13, seed = 7922960
letting cards be [9,28,51,10,38,13,7,33,26,8,21,24,12]
